13590
10
174150
7940
 0 1 1 935 99  14 0 109 10 13 97 31 58 35 110 45 20 121 79 0
 0 1 1 1594 104  17 0 73 120 78 80 41 92 107 132 93 130 127 64 133 75 54 0
 0 1 1 1208 105  15 0 98 122 138 55 46 43 77 106 82 105 111 76 56 0
 0 1 1 1614 105  16 0 104 136 83 68 116 128 47 119 1 18 21 103 28 63 0
 0 1 1 1277 106  16 0 3 81 102 134 40 37 17 11 101 14 135 33 86 89 0
 0 1 1 1156 106  16 0 7 30 84 51 39 8 15 60 59 42 67 100 71 91 0
 0 1 1 1161 102  16 0 95 126 52 87 117 72 66 19 61 48 65 44 57 29 0
 0 1 1 1702 106  17 0 99 2 49 12 90 113 6 5 96 53 129 36 24 85 118 0
 0 1 1 1431 104  15 0 16 32 114 137 125 25 112 22 26 23 4 62 124 0
 0 1 1 1512 102  16 0 88 70 74 50 123 27 115 34 131 38 69 94 108 9 0
